units lj
dimension 3
boundary p p p

processors 2 2 3

atom_style hybrid angle mdpd

neighbor 0.3 bin
neigh_modify every 1 check yes cluster no

comm_modify cutoff 2.0 vel yes
#comm_modify vel yes
 


bond_style harmonic
angle_style harmonic


read_data mol.data


create_atoms 3 random $(round((zhi-zlo)*(xhi-xlo)*(yhi-ylo)*6.05)) 2021 NULL

###########################################################
# Pair, Bond and Angle Coefficients

pair_style hybrid/overlay mdpd/rhosum mdpd 1.0 1.0 1352
pair_coeff  *  *   mdpd/rhosum  0.75

# ----------------------------------------
# 2019 Langmuir Zhou et al (SDS)
#

bond_style harmonic
bond_coeff 1 400 0.64
bond_coeff 2 400 0.64

angle_style harmonic
angle_coeff 1 100 160
angle_coeff 2 100 160

pair_coeff  1  1   mdpd  -19.0  25.0  4.5  1.0  0.75
pair_coeff  1  2   mdpd  -5.98  25.0  4.5  1.0  0.75
pair_coeff  1  3   mdpd  -32.18 25.0  4.5  1.0  0.75
pair_coeff  2  2   mdpd  -22.0  25.0  4.5  1.0  0.75
pair_coeff  2  3   mdpd  -27.0  25.0  4.5  1.0  0.75
pair_coeff  3  3   mdpd  -40.0  25.0  4.5  1.0  0.75


###########################################################

min_style cg
minimize 1e-6 1e-6 100000 1000000

fix         mvv     all mvv/dpd 0.65

compute             mythermo all temp
thermo              100
thermo_modify       temp mythermo
thermo_modify       flush yes

#thermo_modify	 lost ignore lost/bond ignore

timestep 0.01

dump 2 all custom 1 sim.lammpstrj id type x y  z vx vy vz fx fy fz mol

run 100000
