log angle.log

units		lj
atom_style	hybrid sphere dipole mdpd
dimension	3
boundary p p f

neighbor	0.5 bin
neigh_modify	every 1 delay 0 check yes
comm_modify vel yes cutoff 3.5

variable Radius equal 6

region     box     block -18 18 -18 18 0 $(3*v_Radius+3) units box
create_box          2 box

region        drop   sphere 0 0 v_Radius v_Radius

create_atoms  1 random $(round(6.9*3.1415*v_Radius^3*4/3*0.95)) 2021 drop
create_atoms  2 random $(round(6.9*3.1415*v_Radius^3*4/3*0.05)) 2022 drop
group drop type 1
group mnp type 2
mass		* 1.0

velocity all create 1 1 dist gaussian mom yes 

# set		group mnp dipole/random 98934 1

#############################################################
pair_style hybrid/overlay mdpd/rhosum mdpd 1.0 1.0 65689 lj/sf/dipole/sf 1 4.0

pair_coeff  *  *   mdpd/rhosum  0.75
pair_coeff  1  1   mdpd  -50  25  4.5  1.0  0.75
pair_coeff  1  2   mdpd  -70  25  4.5  1.0  0.75
pair_coeff  2  2   mdpd  -50  25  4.5  1.0  0.75

# pair_coeff	1  2 lj/sf/dipole/sf 10 0.6
pair_coeff	2  2 lj/sf/dipole/sf 1 .890899
#############################################################

dump		1 all custom 100 dump.angle3 id type x y z mux muy muz 

fix wallhi all wall/harmonic zhi EDGE 100 1.5 2.0 units box
fix walllo all wall/lj93 zlo EDGE 5.0 0.5 1.0 units box 
# 10 very hydrophilic, 2 hydrophobic, 5 around 90 deg


min_style cg
# minimize 0 0 10000 100000
minimize 1e-4 1e-4 1000 10000

run_style respa 2 10 hybrid 2 2 1 

fix		1 all nve/sphere  update dipole
# fix         2 all mvv/dpd 0.65 

thermo_style	custom step temp press
thermo		200

timestep	0.001
run 1000

timestep	0.01
run 10000

# set		group mnp dipole/random 98934 2

# minimize 1e-4 1e-4 1000 10000
timestep	0.001
run 1000

##################################################
##################################################
# Magnetic field definition 

variable Amp equal 10
variable alpha equal 2*PI/(zhi-zlo)*2

variable Bx atom 0
variable By atom 0
# variable Bz atom v_Amp*sin(v_alpha*z)
variable Bz atom 100

# Gradient of the Field

variable dxBx atom 0
variable dyBx atom 0
variable dzBx atom  0

variable dxBy atom 0
variable dyBy atom 0
variable dzBy atom  0

variable dxBz atom 0
variable dyBz atom 0
# variable dzBz atom v_Amp*v_alpha*cos(v_alpha*z)
variable dzBz atom 0

# Apply field to magnetic particles (group mnp)

fix field mnp efield v_Bx v_By v_Bz

# Apply force due to gradient 

# compute mu all property/atom mux muy muz

# variable dipfx atom c_mu[1]*v_dxBx+c_mu[2]*v_dyBx+c_mu[3]*v_dzBx
# variable dipfy atom c_mu[1]*v_dxBy+c_mu[2]*v_dyBy+c_mu[3]*v_dzBy
# variable dipfz atom c_mu[1]*v_dxBz+c_mu[2]*v_dyBz+c_mu[3]*v_dzBz

# fix fieldforce mnp addforce v_dipfx v_dipfy v_dipfz

##################################################
##################################################


timestep	0.01
run 100000


