log dipole2.log

units		lj
atom_style	hybrid sphere dipole mdpd
dimension	2

neighbor	0.5 bin
neigh_modify	every 1 delay 0 check yes
comm_modify vel yes cutoff 2.5

region        box  block 0 10 0 10 -0.5 0.5 units box
create_box	2 box

create_atoms  1 random 280 2021 box
create_atoms  2 random 60 2022 box


group mnp type 2
mass		* 1.0
set		group all mass 1.0
set		group mnp dipole/random 98934 0.1

velocity	all create 1 87287 mom yes

pair_style hybrid/overlay mdpd/rhosum mdpd 1.0 1.0 65689 lj/sf/dipole/sf 2.0

pair_coeff  *  *   mdpd/rhosum  0.75
pair_coeff  1  1   mdpd  -50.0  25.0  4.5  1.0  0.75

pair_coeff	2  2 lj/sf/dipole/sf 1 .6 

pair_coeff	1  2 lj/sf/dipole/sf 2 .5


dump		1 all custom 100 dump.dipole2d id type x y z mux muy muz fx fy fz

min_style cg
minimize 0 0 1000 10000

# fix field all efield 0 100 0


fix		1  all nve/sphere  update dipole
fix     22 all enforce2d

# fix         2 all mvv/dpd 0.65 

timestep	0.001
run 10000

# compute		erot all erotate/sphere
thermo_style	custom step temp  press
thermo		200

# thermo_modify lost ignore

timestep	0.01
run		50000

