log dipole2.log

units		lj
atom_style	hybrid sphere dipole mdpd
dimension	3
boundary p p p

neighbor	0.5 bin
neigh_modify	every 1 delay 0 check yes
comm_modify vel yes cutoff 2.5

variable Radius equal 3
variable WaveNumber equal 2
variable WaveLength equal 2*PI*v_Radius*v_WaveNumber
print ${WaveLength}



region     mdpd     block -18 18 -18 18 0 ${WaveLength} units box
create_box          1 mdpd

region     tube     cylinder z 0 0 v_Radius INF INF

create_atoms  1 random $(round(6.1*PI*v_Radius^2*v_WaveLength)) 2021 tube


group mnp type 1
mass		* 1.0

set		group mnp dipole/random 98934 0.000001


velocity	all create 1 87287 mom yes

pair_style hybrid/overlay mdpd/rhosum mdpd 1.0 1.0 65689 lj/sf/dipole/sf 1 3.0
# pair_style hybrid/overlay mdpd/rhosum mdpd 1.0 1.0 65689 
pair_coeff  *  *   mdpd/rhosum  0.75

pair_coeff  1  1   mdpd  -50.0  25.0  4.5  1.0  0.75

pair_coeff	1  1 lj/sf/dipole/sf 0.0000 1

# pair_style lj/sf/dipole/sf 3.0 
# pair_coeff	1  1  0 .6

dump		1 all custom 100 dump.energy id type x y z mux muy muz fx fy fz

min_style cg
minimize 0 0 1000 10000

# fix field all efield 0 0 50

fix		1 all nve/sphere  update dipole
# fix         2 all mvv/dpd 0.65 

compute elj all pair lj/sf/dipole/sf
compute edpd all pair mdpd
thermo_style	custom step temp press etotal c_edpd c_elj
# thermo_style	custom step temp press etotal c_elj 
thermo		200

# fix extra all print 10 "$(c_energydpd),$(c_energylj)"

timestep	0.0001
run 10000
timestep	0.001
run 200000
# timestep	0.01
# run 10000

