log dipole2.log

units		lj
atom_style	hybrid sphere dipole 
dimension	3
boundary p p p

neighbor	0.5 bin
neigh_modify	every 1 delay 0 check yes
comm_modify vel yes cutoff 2.5

variable Radius equal 3
variable WaveNumber equal 2
variable WaveLength equal 2*PI*v_Radius*v_WaveNumber
print ${WaveLength}



region     mdpd     block -18 18 -18 18 0 ${WaveLength} units box
create_box          2 mdpd


region     tube     cylinder z 0 0 v_Radius INF INF

create_atoms  1 random $(round(6.1*PI*v_Radius^2*v_WaveLength)) 2021 tube
create_atoms  2 random $(round(6.1*PI*v_Radius^2*v_WaveLength*0.1)) 2022 tube

group mnp type 2
mass		* 1.0

set		group mnp dipole/random 98934 1.

# velocity	all create 1 87287 mom yes

pair_style  lj/sf/dipole/sf 3.0

pair_coeff	2  2  1 .6
pair_coeff	1  2  1 .6
pair_coeff	1  1  1 .6


dump		1 all custom 100 dump.lj-thread id type x y z mux muy muz fx fy fz

min_style cg
minimize 0 0 1000 10000

fix field all efield 0 0 5


fix		1 all nvt/sphere  temp 1 1 1 update dipole
# fix		1 all nve/sphere  update dipole

# fix         2 all mvv/dpd 0.65 

# compute		erot all erotate/sphere
thermo_style	custom step temp  press
thermo		200

timestep	0.0001
run 10000
timestep	0.001
run 200000
# timestep	0.01
# run 10000

# timestep 0.01
# # thermo_modify lost ignore
# run		30000

