log dipole2.log

units		lj
atom_style	hybrid sphere dipole mdpd
dimension	3
boundary p p p

neighbor	0.5 bin
neigh_modify	every 1 delay 0 check yes
comm_modify vel yes cutoff 3.5

variable Radius equal 2
variable WaveNumber equal 1
variable WaveLength equal 2*PI*v_Radius*v_WaveNumber
print ${WaveLength}

region     box     block -5 5 -5 5 0 ${WaveLength} units box
create_box          2 box

region     cylinder     cylinder z 0 0 v_Radius INF INF

create_atoms  1 random $(round(6.1*PI*v_Radius^2*v_WaveLength)) 2021 cylinder
create_atoms  2 random $(round(6.1*PI*v_Radius^2*v_WaveLength*0.1)) 2022 cylinder

group mnp type 2
mass		* 1.0

velocity all create 1 1 dist gaussian mom yes 

set		group mnp dipole/random 98934 1

pair_style hybrid/overlay mdpd/rhosum mdpd 1.0 1.0 65689 lj/sf/dipole/sf 1 3.0

pair_coeff  *  *   mdpd/rhosum  0.75
pair_coeff  1  1   mdpd  -50  25  4.5  1.0  0.75
pair_coeff  1  2   mdpd  -70  25  4.5  1.0  0.75
pair_coeff  2  2   mdpd  -50  25  4.5  1.0  0.75

# pair_coeff	1  2 lj/sf/dipole/sf 10 0.6
pair_coeff	2  2 lj/sf/dipole/sf 0.1 .6

min_style cg
minimize 0 0 10000 100000

dump		1 all custom 100 dump.multistep id type x y z mux muy muz fx fy fz

timestep	0.001

thermo_style	custom step temp press
thermo		200

fix		1 all nve/sphere  update dipole
run 30000

# label       loopa
# variable    a loop 3000
#     fix		1 mnp nve/sphere  update dipole
#     run       9
#     unfix  1    
  
#     fix     2 all mvv/dpd 0.65 
#     run 1
#     unfix 2 

# next        a
# jump        SELF loopa



##################################################
##################################################
# Magnetic field definition 

variable Amp equal 10
variable alpha equal 2*PI/(zhi-zlo)*2

variable Bx atom 0
variable By atom 0
variable Bz atom v_Amp*sin(v_alpha*z)

# Gradient of the Field

variable dxBx atom 0
variable dyBx atom 0
variable dzBx atom  0

variable dxBy atom 0
variable dyBy atom 0
variable dzBy atom  0

variable dxBz atom 0
variable dyBz atom 0
variable dzBz atom v_Amp*v_alpha*cos(v_alpha*z)

# Apply field to magnetic particles (group mnp)

# fix field mnp efield v_Bx v_By v_Bz

# Apply force due to gradient 

compute mu all property/atom mux muy muz

variable dipfx atom c_mu[1]*v_dxBx+c_mu[2]*v_dyBx+c_mu[3]*v_dzBx
variable dipfy atom c_mu[1]*v_dxBy+c_mu[2]*v_dyBy+c_mu[3]*v_dzBy
variable dipfz atom c_mu[1]*v_dxBz+c_mu[2]*v_dyBz+c_mu[3]*v_dzBz

# fix fieldforce mnp addforce v_dipfx v_dipfy v_dipfz

##################################################
##################################################


