log dipole2.log

units		lj
atom_style	hybrid sphere dipole mdpd
dimension	3
boundary p p p

neighbor	0.5 bin
neigh_modify	every 1 delay 0 check yes
comm_modify vel yes cutoff 2.5


region     mdpd     block 0 5 0 5 0 5 units box
create_box          1 mdpd


create_atoms  1 random 1 2021 mdpd


group mnp type 1
mass		* 1.0

set		group mnp dipole/random 98934 1.

# velocity	all create 1 87287 mom yes

pair_style hybrid/overlay mdpd/rhosum mdpd 1.0 1.0 65689 lj/sf/dipole/sf 3.0
pair_coeff  *  *   mdpd/rhosum  0.75

pair_coeff  1  1   mdpd  -50.0  25.0  4.5  1.0  0.75

pair_coeff	1  1 lj/sf/dipole/sf 0 .6


dump		1 all custom 100 dump.varying id type x y z mux muy muz fx fy fz

min_style cg
minimize 0 0 1000 10000

variable Bx equal 0
variable By equal 0
variable Bz atom z/zhi


variable dxBz equal 0
variable dyBz equal 0
variable dzBz equal 1/zhi

fix field all efield v_Bx v_By v_Bz
# fix field all efield 0 0 $(2.08/zhi+1)

compute muz all property/atom muz

print "Hello"

variable xxx atom C_muz*v_dzBz

print ""
print ""
print "Here"
print ""
print ""


fix fieldforce all addforce 0 0 v_xxx

print ""
print ""
print "after"
print ""
print ""


# fix		1 all nvt/sphere  temp 1 1 1 update dipole
fix		1 all nve/sphere  update dipole

# fix         2 all mvv/dpd 0.65 

thermo_style	custom step temp press
thermo		200

print ""
print ""
print "to run"
print ""
print ""

timestep	0.0001
run 10000
timestep	0.001
run 200000
# timestep	0.01
# run 10000

