units lj
dimension 3
boundary p p p

processors 1 1 *

atom_style hybrid angle mdpd

neighbor 0.3 bin
neigh_modify  every 1  check yes
comm_modify mode single cutoff 2.0 vel yes

variable R equal 8
variable pi equal 3.14159265358979

variable sc index 0.5
variable dir index 1
variable rand equal ${dir}
print $(v_rand)

variable run_a index 20000
variable run_b index 60000

bond_style harmonic
angle_style harmonic

log $(v_sc:%.1f)/${dir}/cylinder_$(v_R)_$(v_sc:%.1f).log
read_data initial-data/initial_wave_cylinder_$(v_R)_$(v_sc:%.1f).data

replicate 1 1 4

###########################################################
# Pair, Bond and Angle Coefficients

pair_style hybrid/overlay mdpd/rhosum mdpd 1.0 1.0 $(v_rand) 
pair_coeff  *  *   mdpd/rhosum  0.75

# ----------------------------------------
# 2019 Langmuir Zhou et al (SDS)
#

bond_style harmonic
bond_coeff 1 400 0.64
bond_coeff 2 400 0.64

angle_style harmonic
angle_coeff 1 100 160
angle_coeff 2 100 160

pair_coeff  1  1   mdpd  -19.0  25.0  4.5  1.0  0.75
pair_coeff  1  2   mdpd  -5.98  25.0  4.5  1.0  0.75
pair_coeff  1  3   mdpd  -32.18 25.0  4.5  1.0  0.75
pair_coeff  2  2   mdpd  -22.0  25.0  4.5  1.0  0.75
pair_coeff  2  3   mdpd  -27.0  25.0  4.5  1.0  0.75
pair_coeff  3  3   mdpd  -40.0  25.0  4.5  1.0  0.75


###########################################################

min_style cg
minimize 1e-4 1e-4 10000 100000

fix bb all  balance 1000 1.4 shift z 50 1.1

fix         mvv     all mvv/dpd 0.65

compute             mythermo all temp
thermo              1000
thermo_modify       temp mythermo
thermo_modify       flush yes

thermo_modify	 lost ignore lost/bond ignore

timestep 0.01

run ${run_a}

dump  mydump  all custom 100 $(v_sc:%.1f)/${dir}/pinch_sc$(v_sc:%.1f).lammpstrj id type x y z vx vy vz fx fy fz

run ${run_b}

