log dipole2.log

units		lj
atom_style	hybrid sphere dipole mdpd
dimension	3
boundary p p p

processors 1 1 *

neighbor	0.5 bin
neigh_modify	every 1 delay 0 check yes
comm_modify vel yes cutoff 3.5

# time to break :

# con 0.1:
# Field amp 10 2ndrop 2 radius 4 dip 3 - 34600 nobreak
# Field amp 0 2ndrop 2 radius 4 dip 0 - 10700
# Field amp 100 2ndrop 2 radius 4 dip 3 - 3000

# Field amp 100 2ndrop 1 radius 4 dip 3 - 3000 
# Field amp 50 2ndrop 1 radius 4 dip 3 - 3400 
# Field amp 30 2ndrop 1 radius 4 dip 3 - 3800 
# Field amp 20 2ndrop 1 radius 4 dip 3 - 4400 
# Field amp 18 2ndrop 1 radius 4 dip 3 - 2400  no pre field run
# Field amp 15 2ndrop 1 radius 4 dip 3 - 18000 
# Field amp 10 2ndrop 1 radius 4 dip 3 - 54000 nobreak
# Field amp 10 2ndrop 1 radius 4 dip 3 - 34000 nobreak no pre field run

# Field amp 0 2ndrop 1 radius 6 dip 0 - 32700

# con 0.15:
# 
#


variable Radius equal 4

variable con index 0.1
variable dip index 2
variable DIR index dir

variable WaveNumber equal 0.57
variable NDrops equal 4
variable FieldNDrops index 2 

variable seed index 1

variable WaveLength equal 2*PI*v_Radius/v_WaveNumber*v_NDrops
print ${WaveLength}

region box     block -30 30 -30 30 0 ${WaveLength} units box
create_box 2 box

region cylinder cylinder z 0 0 v_Radius INF INF

create_atoms  1 random $(round(6.9*PI*v_Radius^2*v_WaveLength*(1-v_con))) $(v_seed) cylinder
create_atoms  2 random $(round(6.9*PI*v_Radius^2*v_WaveLength*v_con)) $(v_seed+100) cylinder

group mnp type 2
mass		* 1.0

velocity all create 1 1 dist gaussian mom yes 

if "$(v_dip>0.001)" then &
  "set group mnp dipole/random 98934 $(v_dip)"

#############################################################
pair_style hybrid/overlay mdpd/rhosum mdpd 1.0 1.0 $(v_seed) lj/sf/dipole/sf 1 3.0

pair_coeff  *  *   mdpd/rhosum  0.75
pair_coeff  1  1   mdpd  -50  25  4.5  1.0  0.75
pair_coeff  1  2   mdpd  -70  25  4.5  1.0  0.75
pair_coeff  2  2   mdpd  -50  25  4.5  1.0  0.75

# pair_coeff	1  2 lj/sf/dipole/sf 10 0.6
pair_coeff	2  2 lj/sf/dipole/sf 1 .890899
#############################################################

log ${DIR}/angle.log
dump		1 all custom 200 ${DIR}/sim.lammpstrj id type x y z mux muy muz 

min_style cg
minimize 0 0 10000 100000

run_style respa 2 10 hybrid 2 2 1 

fix bb all balance 10000 1.4 shift z 50 1.1 

fix		1 all nve/sphere  update dipole
# fix         2 all mvv/dpd 0.65 

thermo_style	custom step temp press
thermo		100

# timestep	0.001
# run 1000

# timestep	0.01
# run 1000

##################################################
##################################################
# Magnetic field definition 

variable Amp index 0
variable alpha equal 2*PI/(zhi-zlo)*v_FieldNDrops

variable Bx atom 0
variable By atom 0
variable Bz atom v_Amp*cos(v_alpha*z+PI)#+v_Amp

# Gradient of the Field

variable dxBx atom 0
variable dyBx atom 0
variable dzBx atom 0

variable dxBy atom 0
variable dyBy atom 0
variable dzBy atom 0

variable dxBz atom 0
variable dyBz atom 0
variable dzBz atom -v_Amp*v_alpha*sin(v_alpha*z+PI)

# Apply field to magnetic particles (group mnp)

fix field mnp efield v_Bx v_By v_Bz

# Apply force due to gradient 

compute mu all property/atom mux muy muz

variable dipfx atom c_mu[1]*v_dxBx+c_mu[2]*v_dyBx+c_mu[3]*v_dzBx
variable dipfy atom c_mu[1]*v_dxBy+c_mu[2]*v_dyBy+c_mu[3]*v_dzBy
variable dipfz atom c_mu[1]*v_dxBz+c_mu[2]*v_dyBz+c_mu[3]*v_dzBz

fix fieldforce mnp addforce v_dipfx v_dipfy v_dipfz

##################################################
##################################################


timestep	0.01
run 40000

write_data ${DIR}/final.data


