units lj
dimension 3
boundary p p p

processors 2 2 *

atom_style hybrid angle mdpd
neighbor 0.3 bin
#neigh_modify delay 4 every 2
neigh_modify every 1 delay 0 check yes
comm_modify vel yes

variable R equal 8
variable pi equal 3.14159265358979
variable sc equal 0.5


log test.log
read_data initial_data/cylinder_$(v_R)_$(v_sc:%.2g).data

region  water  cylinder z 0 0 ${R} INF INF
#create_atoms 3 random 20000 2021 water
# create_atoms 3 random 17000 2021 water
create_atoms 3 random $(round((zhi-zlo)*v_pi*v_R^2*5.8)) 2021 water

###########################################################
# Pair, Bond and Angle Coefficients

pair_style hybrid/overlay mdpd/rhosum mdpd 1.0 1.0 65689
pair_coeff  *  *   mdpd/rhosum  0.75

# ----------------------------------------
# 2019 Langmuir Zhou et al (SDS)
#
pair_coeff  1  1   mdpd  -19.0  25.0  4.5  1.0  0.75
pair_coeff  1  2   mdpd  -5.98  25.0  4.5  1.0  0.75
pair_coeff  1  3   mdpd  -32.18 25.0  4.5  1.0  0.75
pair_coeff  2  2   mdpd  -22.0  25.0  4.5  1.0  0.75
pair_coeff  2  3   mdpd  -27.0  25.0  4.5  1.0  0.75
pair_coeff  3  3   mdpd  -40.0  25.0  4.5  1.0  0.75

bond_style harmonic
bond_coeff 1 400 0.64
bond_coeff 2 400 0.64

angle_style harmonic
angle_coeff 1 100 160
angle_coeff 2 100 160

# ----------------------------------------
# 2013 Ghoufi et al (SDS)

# pair_coeff  1  1   mdpd  -50.0  25.0  4.5  1.0  0.75
# pair_coeff  1  2   mdpd  -33.1  25.0  4.5  1.0  0.75
# pair_coeff  1  3   mdpd  -54.6  25.0  4.5  1.0  0.75
# pair_coeff  2  2   mdpd  -50.0  25.0  4.5  1.0  0.75
# pair_coeff  2  3   mdpd  -36.7  25.0  4.5  1.0  0.75
# pair_coeff  3  3   mdpd  -50.0  25.0  4.5  1.0  0.75
#
# bond_style harmonic
# bond_coeff 1 400 0.89
# bond_coeff 2 400 1.20
#
# angle_style harmonic
# angle_coeff 1 100 150
# angle_coeff 2 100 150

###########################################################

min_style cg
minimize 0 1e-4 1000 10000

fix         mvv     all mvv/dpd 0.65

compute             mythermo all temp
thermo              100
thermo_modify       temp mythermo
thermo_modify       flush yes

#thermo_modify	 lost ignore lost/bond ignore

timestep 0.01

dump 2 all atom 1000 all-test$(v_R)_$(v_sc:%.2g).lammpstrj

run 200000


write_data  initial_cylinder_$(v_R)_$(v_sc:%.2g).data
