units lj
dimension 3
boundary p p p

processors * * 1

atom_style hybrid angle mdpd

neighbor 0.3 bin
neigh_modify every 1 delay 0 check yes

comm_modify mode single cutoff 2.3 vel yes

region     slab      block -4 4 -4 4 -4 4
create_box 3 slab bond/types 1 angle/types 2 extra/special/per/atom 3 extra/bond/per/atom 2 extra/angle/per/atom 3

molecule 1 mol.txt
create_atoms        0 random 100 2021 slab mol 1 1

mass * 1

###########################################################
# Pair, Bond and Angle Coefficients

pair_style hybrid/overlay mdpd/rhosum mdpd 1.0 1.0 65689
pair_coeff  *  *   mdpd/rhosum  0.75

# ----------------------------------------
# 2019 Langmuir Zhou et al (SDS)
#
pair_coeff  1  1   mdpd  -19.0  25.0  4.5  1.0  0.75
pair_coeff  1  2   mdpd  -5.98  25.0  4.5  1.0  0.75
pair_coeff  1  3   mdpd  -32.18 25.0  4.5  1.0  0.75
pair_coeff  2  2   mdpd  -22.0  25.0  4.5  1.0  0.75
pair_coeff  2  3   mdpd  -27.0  25.0  4.5  1.0  0.75
pair_coeff  3  3   mdpd  -40.0  25.0  4.5  1.0  0.75

bond_style harmonic
bond_coeff 1 150 0.5

angle_style harmonic
angle_coeff 1 5 180
angle_coeff 2 5 120

###########################################################

write_data mol.data
dump        mydump  all atom 100 mol.lammpstrj

min_style cg
minimize 0 0 1000 10000

fix         mvv     all mvv/dpd 0.65

compute             mythermo all temp
thermo              100
thermo_modify       temp mythermo
thermo_modify       flush yes
# thermo_modify	 lost ignore lost/bond ignore

timestep            0.01
run                 100000

