units lj
dimension 3
boundary p p p

processors 2 2 *

atom_style hybrid angle mdpd
neighbor 0.3 bin
neigh_modify every 1 delay 0 check yes
comm_modify vel yes cutoff 2.0

region        box  block 0 50 -12 12 0 3 units box
create_box    1    box

mass 1 1

region        wall-top   block INF INF 8 10 INF INF
region        wall-bot   block INF INF -10 -8 INF INF
region        fluid      block INF INF -8 8 INF INF

region wall union 2 wall-top wall-bot
region full union 2 wall fluid

create_atoms  1 random $(round(6.8*lx*lz*20)) 2021 full


###########################################################
# Pair, Bond and Angle Coefficients

pair_style hybrid/overlay mdpd/rhosum mdpd 1.0 1.0 65689
pair_coeff  *  *   mdpd/rhosum  0.75

pair_coeff  1  1   mdpd  -50.0  25.0  4.5  1.0  0.75

###########################################################

compute             mythermo all temp
thermo              100
thermo_modify       temp mythermo
thermo_modify       flush yes

dump 1 all custom 100 sim.lammpstrj id type x y z vx vy vz

min_style cg
minimize 1e-4 1e-4 1000 10000

fix         mvv     all mvv/dpd 0.65
timestep 0.01
run 2000


group wall region wall 
group flow region fluid

velocity wall set 0 0 0
fix 1 wall setforce 0 0 0

fix gravity flow addforce 0.01 0 0


timestep 0.01
run 20000

