units 		          lj
dimension	          3
boundary	          p p p
neighbor	          0.3 bin
neigh_modify        every 1 check yes

atom_style	        mdpd


read_data  initial_npt_40.data

# # region     mdpd     block -2.5 2.5 -2.5 2.5 0 22 units box
# region     mdpd     block -5 5 -5 5 0 40 units box
# create_box          1 mdpd


variable A equal -300
variable B equal 25
variable rd equal 0.75
variable dt equal 0.01

log A$(abs(v_A))_B$(v_B)_w1.log


# region     slab      block -2.5 2.5 -2.5 2.5 8.5 13.5
# create_atoms        1 random 1000 2021 slab

# region     slab      block -5 5 -5 5 15 25
# create_atoms        1 random 6000 2021 slab



pair_style          hybrid/overlay mdpd/rhosum mdpd 1.0 1.0 9872598
pair_coeff          1 1 mdpd/rhosum  0.75
pair_coeff          1 1 mdpd         ${A} ${B} 4.5 1.0 ${rd}
mass                1 1.0

compute             mythermo all temp
thermo              100
thermo_modify       temp mythermo
thermo_modify       flush yes
# thermo_style custom v_gamma pxx pyy pzz temp

velocity            all create 1.0 2093 loop local dist gaussian
comm_modify         vel yes
fix         mvv     all mvv/dpd 0.65

# min_style cg
# minimize 0 0 1000 10000

# compute den all chunk/atom bin/3d z 20 20 x -10 20 y -10 20 discard yes
# fix den all ave/chunk 1 100 100 den density/number file den.txt

dump        mydump  all atom 100 A$(abs(v_A))_B$(v_B)_w1.lammpstrj

timestep            ${dt}
run                 5000

compute             myP all pressure mythermo

variable gamma equal "((zhi-zlo)*0.5) * (pzz - (pxx + pyy)*0.5)"

thermo              100
thermo_modify       temp mythermo
thermo_modify       flush yes
thermo_style custom v_gamma pxx pyy pzz temp

run                 10000
