# Script modified from mDPD example folder
#
# Break up of fluid thread
processors 2 2 1

units 		          lj
dimension	          3
boundary	          p p p
neighbor	          0.3 bin
neigh_modify        every 1 check yes

atom_style	        mdpd


region     mdpd     block -10 10 -10 10 -10 10  units box
create_box          1 mdpd

lattice             fcc 9.7
create_atoms        1 region mdpd


pair_style          hybrid/overlay mdpd/rhosum mdpd 1.0 1.0 9872598
pair_coeff          1 1 mdpd/rhosum  0.75
pair_coeff          1 1 mdpd         -90 25 18.0 1.0 0.75
mass                1 1


compute             mythermo all temp
thermo              100
thermo_modify       temp mythermo
thermo_modify       flush yes


velocity            all create 1.0 2093 loop local dist gaussian
comm_modify         vel yes
fix         mvv     all mvv/dpd 0.65


timestep            0.01

dump        mydump  all atom 100 thread2.lammpstrj
dump_modify mydump scale no


run                 70000
