import "dimer.lt"
using namespace dimer

layer = new Octanol [10000]

write_once("Data Boundary") {
  -7      7       zlo zhi
  -7      7       ylo yhi
  -7      7       xlo xhi
}


write_once("In Init") {
  units           lj
  atom_style      hybrid angle charge
  bond_style      harmonic
  angle_style     harmonic

  dihedral_style  none
  improper_style  none

  pair_style  hybrid/overlay mdpd/rhosum mdpd 1.0 1.0 9872598
}

write_once("In Settings") {

}
