import "lipid.lt"
#import "lipid2.lt"
using namespace lipid

layer = new DPPC [2400]

write_once("Data Boundary") {
  -20      20       zlo zhi
  -40      40       ylo yhi
  -20      20       xlo xhi
}


write_once("In Init") {
  units           lj
  atom_style      hybrid angle charge
  bond_style      harmonic
  angle_style     harmonic

  dihedral_style  none
  improper_style  none

  pair_style  hybrid/overlay mdpd/rhosum mdpd 1.0 1.0 9872598
}

write_once("In Settings") {

}
