import "surfactant.lt"
using namespace surfactant

layer = new HT3 [3498]

write_once("Data Boundary") {
    0      24       zlo zhi
  -50      50       ylo yhi
  -50      50       xlo xhi
}


write_once("In Init") {
  units           lj
  atom_style      hybrid angle charge
  bond_style      harmonic
  angle_style     harmonic

  dihedral_style  none
  improper_style  none

  pair_style  hybrid/overlay mdpd/rhosum mdpd 1.0 1.0 9872598
}

write_once("In Settings") {

}
