import "surfactant.lt"
using namespace surfactant

#import "water.lt"
#using namespace water

layer = new HT3 [3000]
#liquid = new H2O [0]

write_once("Data Boundary") {
  0      30      zlo zhi
  -25      25       ylo yhi
  -25      25       xlo xhi
}


write_once("In Init") {
  units           lj
  atom_style      hybrid angle charge
  bond_style      harmonic
  angle_style     harmonic

  dihedral_style  none
  improper_style  none

  pair_style  hybrid/overlay mdpd/rhosum mdpd 1.0 1.0 9872598
}

write_once("In Settings") {

}
