import "surfactant.lt"
using namespace surfactant

layer = new HT3 [700]

write_once("Data Boundary") {
   0    40      zlo zhi
  -5    5       ylo yhi
  -5    5       xlo xhi
}


write_once("In Init") {
  units           lj
  atom_style      hybrid angle charge
  bond_style      harmonic
  angle_style     harmonic

  dihedral_style  none
  improper_style  none

  pair_style  hybrid/overlay mdpd/rhosum mdpd 1.0 1.0 9872598
}

write_once("In Settings") {

}
