log mixture-LJ.log

units		real
atom_style	full
dimension	3
boundary p p p

# neighbor	0.5 bin
neigh_modify	every 1 delay 0 check yes
# comm_modify vel yes cutoff 2.5


variable length equal 89.6
variable molFrac1 equal 0.5
variable molFrac2 equal $(1 - v_molFrac1)

variable Ntotal equal 10000
region       box   block 0 $(v_length) 0 $(v_length) 0 $(v_length) units box
create_box          2 box

create_atoms  1 random $(round(v_Ntotal*v_molFrac1)) 2021 box
create_atoms  2 random $(round(v_Ntotal*v_molFrac2)) 2022 box

mass		1 72 
mass		2 36 

velocity	all create 300 87287 mom yes

pair_style lj/gromacs 9.0 12.0

# pair_coeff  1  1   $(5.0/4.184) 4.7
# pair_coeff  1  2   $(5.0/4.184) 4.1
# pair_coeff  2  2   $(5.0/4.184) 3.5 

pair_coeff  1  1   4 4.7
pair_coeff  1  2   1 4.0
pair_coeff  2  2   1.5 3.4 

# pair_coeff  1  1   1 4.7
# pair_coeff  1  2   1 3.95
# pair_coeff  2  2   1 3.4 

dump		1 all atom 1000 dump.mixture-lj 

min_style cg
minimize 0 0 1000 10000

# fix         2 all mvv/dpd 0.65 

# fix 1 all npt temp 300 300 1000.0 couple xy aniso 1.0 1.0 1000.0 drag 1
fix fxlan all langevin  300.0 300.0  1000  12345
fix fxnve all nve

thermo_style	custom step temp press vol etotal 
thermo		200

timestep	10
run 100000


