import "surfactant.lt"
using namespace surfactant


layer = new HT3 [5000]

write_once("Data Boundary") {
  0      30       xlo xhi
  -15      15       ylo yhi
  -15      15       zlo zhi
}


write_once("In Init") {
  units           lj
  atom_style      hybrid angle charge
  bond_style      harmonic
  angle_style     harmonic

  dihedral_style  none
  improper_style  none

  pair_style  hybrid/overlay mdpd/rhosum mdpd 1.0 1.0 9872598
}

write_once("In Settings") {

}
