units lj
dimension 3
boundary p p p

processors * * 2

atom_style hybrid angle mdpd

neighbor 0.3 bin
neigh_modify every 1 delay 0 check yes

comm_modify mode single cutoff 2.3 vel yes

variable sc equal 0.4

read_data data/$(v_sc:%.2g)/system.data extra/atom/types 1

log sc_$(v_sc:%.2g).log

region     slab      block -10 10 -10 10 -10 10
create_atoms        3 random $(round(lx*ly*20*6.05)) 2021 slab
mass 3 1


###########################################################
# Pair, Bond and Angle Coefficients

pair_style hybrid/overlay mdpd/rhosum mdpd 1.0 1.0 65689
pair_coeff  *  *   mdpd/rhosum  0.75

# ----------------------------------------
# 2019 Langmuir Zhou et al (SDS)
#
pair_coeff  1  1   mdpd  -19.0  25.0  4.5  1.0  0.75
pair_coeff  1  2   mdpd  -5.98  25.0  4.5  1.0  0.75
pair_coeff  1  3   mdpd  -32.18 25.0  4.5  1.0  0.75
pair_coeff  2  2   mdpd  -22.0  25.0  4.5  1.0  0.75
pair_coeff  2  3   mdpd  -27.0  25.0  4.5  1.0  0.75
pair_coeff  3  3   mdpd  -40.0  25.0  4.5  1.0  0.75

bond_style harmonic
bond_coeff 1 400 0.64  # 4 - 400
bond_coeff 2 400 0.64  # 4 - 400

angle_style harmonic
angle_coeff 1 10 160
angle_coeff 2 10 160

# ----------------------------------------
# 2013 Ghoufi et al (SDS)

# pair_coeff  1  1   mdpd  -50.0  25.0  4.5  1.0  0.75
# pair_coeff  1  2   mdpd  -33.1  25.0  4.5  1.0  0.75
# pair_coeff  1  3   mdpd  -54.6  25.0  4.5  1.0  0.75
# pair_coeff  2  2   mdpd  -50.0  25.0  4.5  1.0  0.75
# pair_coeff  2  3   mdpd  -36.7  25.0  4.5  1.0  0.75
# pair_coeff  3  3   mdpd  -50.0  25.0  4.5  1.0  0.75
#
# bond_style harmonic
# bond_coeff 1 400 0.89
# bond_coeff 2 400 1.20
#
# angle_style harmonic
# angle_coeff 1 100 150
# angle_coeff 2 100 150

###########################################################


dump        mydump  all atom 10000 sim_$(v_sc:%.2g).lammpstrj
dump_modify mydump scale no

min_style cg
minimize 0 0 1000 10000

fix         mvv     all mvv/dpd 0.65

compute             mythermo all temp
thermo              100
thermo_modify       temp mythermo
thermo_modify       flush yes
# thermo_modify	 lost ignore lost/bond ignore

timestep            0.01
run                 100000

compute             myP all pressure mythermo

variable gamma equal "((zhi-zlo)*0.5) * (pzz - (pxx + pyy)*0.5)"

fix 1 all ave/time 100 90 10000 v_gamma file gamma_$(v_sc:%.2g).profile

thermo              100
thermo_modify       temp mythermo
thermo_modify       flush yes
thermo_style custom v_gamma pxx pyy pzz temp

run                 1000000
