# Script modified from mDPD example folder
#
# Break up of fluid thread

units 		          lj
dimension	          3
boundary	          p p p
neighbor	          0.3 bin
neigh_modify        every 1 check yes

atom_style	        mdpd

variable Radius equal 1.5
variable WaveNumber equal 1
variable WaveLength equal 2*PI*v_Radius/v_WaveNumber
print ${WaveLength}


region     mdpd     block -3 3 -3 3 0 9 units box
create_box          1 mdpd

lattice             fcc 2
region     tube     cylinder z 0 0 v_Radius INF INF
create_atoms        1 region tube

pair_style          hybrid/overlay mdpd/rhosum mdpd 1.0 1.0 9872598
pair_coeff          1 1 mdpd/rhosum  0.75
pair_coeff          1 1 mdpd         -40 25 18.0 1.0 0.75
mass                 1 1.0

compute             mythermo all temp
thermo              100
thermo_modify       temp mythermo
thermo_modify       flush yes

velocity            all create 1.0 38497 loop local dist gaussian
comm_modify         vel yes
fix         mvv     all mvv/dpd 0.65

dump        mydump  all xyz 200 pp.lammpstrj


timestep            0.01
run                 100
write_dump    all atom dump.atom

