    units           lj
    atom_style      hybrid angle charge
    bond_style      harmonic
    angle_style     harmonic

    dihedral_style  none
    improper_style  none

    pair_style  hybrid/overlay mdpd/rhosum mdpd 1.0 1.0 9872598
  units           lj
  atom_style      hybrid angle charge
  bond_style      harmonic
  angle_style     harmonic

  dihedral_style  none
  improper_style  none

  pair_style  hybrid/overlay mdpd/rhosum mdpd 1.0 1.0 9872598
