import "poly.lt"
using namespace poly

layer = new N4 [2200]

write_once("Data Boundary") {
    0      20       zlo zhi
  -30      30       ylo yhi
  -30      30       xlo xhi
}


write_once("In Init") {
  units           lj
  atom_style      hybrid angle charge
  bond_style      harmonic

  angle_style     none
  dihedral_style  none
  improper_style  none

  pair_style  hybrid/overlay mdpd/rhosum mdpd 1.0 1.0 9872598
}

write_once("In Settings") {

}
