units lj
dimension 3
boundary p p f

processors 2 2 *

atom_style hybrid angle mdpd
neighbor 0.3 bin
neigh_modify every 1 delay 0 check yes
comm_modify vel yes cutoff 2.0

region        box  block -20 20 -20 20 0 40 units box
create_box    2    box
mass * 1

variable thickness equal 5
variable radius equal 10
variable filmDensity equal 6.0
variable dropDensity equal 6.9
variable wallFilmInter equal 100
variable wallDropInter equal 10

region        film   block INF INF INF INF 0.5 $(0.5+v_thickness)
region        drop   sphere 0 0 $(0.5+v_thickness+v_radius) v_radius

create_atoms  2 random $(round(v_filmDensity*lx*ly*v_thickness)) 2021 film
group film type 2

###########################################################
# Pair, Bond and Angle Coefficients

pair_style hybrid/overlay mdpd/rhosum mdpd 1.0 1.0 65689
pair_coeff  *  *   mdpd/rhosum  0.75

# Drop - Drop
pair_coeff  1  1   mdpd  -50.0  25.0  4.5  1.0  0.75
# Drop - Film
pair_coeff  1  2   mdpd  -30.0  25.0  4.5  1.0  0.75
# Film - Film
pair_coeff  2  2   mdpd  -40.0  25.0  4.5  1.0  0.75

###########################################################

compute             mythermo all temp
thermo              100
thermo_modify       temp mythermo
thermo_modify       flush yes

dump 1 all atom 100 meniscus.lammpstrj

fix wallFilmBot film wall/lj93 zlo 0 v_wallFilmInter 0.5 1.0 units box

fix wallFilmTop film wall/harmonic zhi $(0.5+v_thickness+10) 100 0.5 1.0 units box
fix wallTop all wall/harmonic zhi 29 100 0.5 1.0 units box

min_style cg
minimize 1e-6 1e-6 1000 10000

fix         mvv     all mvv/dpd 0.65
timestep 0.01
run 1000

create_atoms  1 random $(round(v_dropDensity*v_PI*v_radius^3*4/3)) 2021 drop
group drop type 1

fix wallDropBot drop wall/lj93 zlo 1.6 v_wallDropInter 0.5 1.0 units box

min_style cg
minimize 1e-4 1e-4 1000 10000

timestep 0.01
run 30000

write_data meniscus.data


