units lj
dimension 3
boundary p p p

processors 2 2 *

atom_style hybrid angle mdpd
neighbor 0.3 bin
neigh_modify every 1 delay 0 check yes
comm_modify vel yes cutoff 2.0

region        box  block -20 20 -20 20 0 30 units box
create_box    2    box

mass 1 1
mass 2 1

region        wall   block INF INF INF INF 1 3
region        slip   block  INF INF INF INF 2 4 


region        drop   sphere 0 0 9 6

create_atoms  1 random $(round(6.9*lx*ly*2.1)) 2021 wall
group wall type 1


###########################################################
# Pair, Bond and Angle Coefficients

pair_style hybrid/overlay mdpd/rhosum mdpd 1.0 1.0 65689
pair_coeff  *  *   mdpd/rhosum  0.75

pair_coeff  1  1   mdpd  -70.0  25.0  4.5  1.0  0.75
pair_coeff  2  2   mdpd  -50.0  25.0  4.5  1.0  0.75

pair_coeff  1  2   mdpd  -30.0  25.0  4.5  1.0  0.75

###########################################################

compute             mythermo all temp
thermo              100
thermo_modify       temp mythermo
thermo_modify       flush yes

dump 1 all atom 100 moving.lammpstrj

min_style cg
minimize 1e-4 1e-4 1000 10000

fix         mvv     all mvv/dpd 0.65
timestep 0.01
run 1000


create_atoms  2 random $(round(6.9*3.1415*6*6*6*4/3)) 2021 drop
group drop type 2

velocity wall set 0 0 0
fix 1 wall setforce 0 0 0

#neigh_modify exclude type 1 1

min_style cg
minimize 1e-4 1e-4 1000 10000

timestep 0.01
run 4000

# group  slip region  slip
# group move intersect drop slip


group move dynamic drop region  slip every 10

variable amp equal 1
variable omega equal 2*PI/30
variable oscillation equal -v_amp*sin(2*v_omega*(time-51))
variable velo equal v_amp/v_omega*cos(2*v_omega*(time-51))

velocity move set 0 v_velo 0 sum yes

fix gravity move addforce 0 v_oscillation 0
# fix gravity move setforce 0 v_oscillation 0

run 12000

