units lj
dimension 3
boundary p p f

processors 2 2 *

atom_style hybrid angle mdpd
neighbor 0.3 bin
neigh_modify every 1 delay 0 check yes
comm_modify vel yes cutoff 2.0

region        box  block -20 20 -20 20 0 30 units box
create_box    1    box

mass 1 1


region        wall   block INF INF INF INF 1 3
region        drop   sphere 0 0 11 8

create_atoms  1 random $(round(6.9*3.1415*8*8*8*4/3)) 2021 drop
group drop type 1

###########################################################
# Pair, Bond and Angle Coefficients

pair_style hybrid/overlay mdpd/rhosum mdpd 1.0 1.0 65689
pair_coeff  *  *   mdpd/rhosum  0.75

pair_coeff  1  1   mdpd  -50.0  25.0  4.5  1.0  0.75

###########################################################

compute             mythermo all temp
thermo              100
thermo_modify       temp mythermo
thermo_modify       flush yes

dump 1 all atom 100 wall-sim.lammpstrj

min_style cg
minimize 1e-4 1e-4 1000 10000

fix         mvv     all mvv/dpd 0.65
timestep 0.01
run 1000


# fix wallhi all wall/region wall lj93 1 1 0.7

fix wallhi all wall/lj93 zlo 3 2.0 0.5 1.0 units box


min_style cg
minimize 1e-4 1e-4 1000 10000

timestep 0.01
run 10000

fix gravity drop addforce 0 -0.01 0

run 10000

