units lj
dimension 3
boundary p p f

processors 2 2 *

atom_style hybrid angle mdpd
neighbor 0.3 bin
neigh_modify every 1 delay 0 check yes
comm_modify vel yes cutoff 2.0

region        box  block -20 20 -60 60 0 30 units box
create_box    1    box

mass 1 1

region        layer   block  INF INF INF INF 2 4.5 


variable Radius equal 12

region        drop   sphere 0 0 $(v_Radius + 3.5) v_Radius
create_atoms  1 random $(round(6.9*4/3*PI*v_Radius^3)) 2021 drop

###########################################################
# Pair, Bond and Angle Coefficients

pair_style hybrid/overlay mdpd/rhosum mdpd 1.0 1.0 65689
pair_coeff  *  *   mdpd/rhosum  0.75

pair_coeff  1  1   mdpd  -50.0  25.0  4.5  1.0  0.75

###########################################################

compute             mythermo all temp
thermo              100
thermo_modify       temp mythermo
thermo_modify       flush yes

dump 2 all atom 100 moving-lj1.lammpstrj

min_style cg
minimize 1e-4 1e-4 1000 10000

fix         mvv     all mvv/dpd 0.65
timestep 0.01
run 1000

fix wallhi all wall/harmonic zhi 29 100 0.5 1.0 units box
fix walllo all wall/lj93 zlo 3 4.0 0.5 1.0 units box

min_style cg
minimize 1e-4 1e-4 1000 10000

run 10000
undump 2


print  "$(step), $(time)"

group movingLayer dynamic all region layer every 10
run 0 # Necessary to add atoms to the dynamic group 'move'


# From the solution to x'' + x = 0, with bc x(0)=0 and x'(0)=A*w
# x(t) = A*sin(w*t)
# x'(t) = v(t) = A*w*cos(w*t)
# x''(t) = a(t) = F(t)/m = -A*w^2*cos(w*t)
# Setting an initial velocity is necessary to keep droplet in place

variable amp equal 50
variable freq equal 0.02
variable omega equal 2*PI*v_freq
variable oscillation equal -v_amp*v_omega^2*cos(v_omega*time)
variable velocity equal v_amp*v_omega*sin(v_omega*time)

dump 1 all atom 100 moving-lj2.lammpstrj

reset_timestep 0  # So that force starts to be applied when t=0

velocity movingLayer set 0 v_velocity 0 sum yes
velocity all zero linear

fix f1 movingLayer addforce 0 v_oscillation 0

# fix mom all momentum 100 linear 1 1 1

# fix extra all print 10 "$(v_oscillation),$(v_velocity), $(time)"

run 100000



