units lj
dimension 3
boundary p p p

processors 2 2 *

atom_style hybrid angle mdpd
neighbor 0.3 bin
neigh_modify every 1 delay 0 check yes
comm_modify vel yes cutoff 2.0

region        box  block -20 20 -20 20 0 30 units box
create_box    1    box

mass 1 1

region        drop   sphere 0 0 9 6
create_atoms  1 random $(round(6.9*3.1415*6*6*6*4/3)) 2021 drop

###########################################################
# Pair, Bond and Angle Coefficients

pair_style hybrid/overlay mdpd/rhosum mdpd 1.0 1.0 65689
pair_coeff  *  *   mdpd/rhosum  0.75

pair_coeff  1  1   mdpd  -70.0  25.0  4.5  1.0  0.75

###########################################################

compute             mythermo all temp
# thermo              100
# thermo_modify       temp mythermo
# thermo_modify       flush yes

dump 1 all atom 100 oscillate.lammpstrj

min_style cg
minimize 1e-4 1e-4 1000 10000

timestep 0.01
run 1000

variable oscillation equal -.1*sin(2*3.1415/30*(time-11))
variable velo equal .1/(2*PI)*30*cos(2*3.1415/30*(time-11))

velocity all set 0 v_velo 0 sum yes

fix gravity all addforce 0 v_oscillation 0

fix         mvv     all mvv/dpd 0.65

fix extra all print 1 "$(v_oscillation),$(v_velo) $(step)"

run 12000

