units lj
dimension 3
boundary p p f

processors 2 2 *

atom_style hybrid angle mdpd
neighbor 0.3 bin
neigh_modify every 1 delay 0 check yes
comm_modify vel yes cutoff 2.0

read_data two_drops.data

###########################################################
# Pair, Bond and Angle Coefficients

pair_style hybrid/overlay mdpd/rhosum mdpd 1.0 1.0 65689
pair_coeff  *  *   mdpd/rhosum  0.75

pair_coeff  1  1   mdpd  -50.0  25.0  4.5  1.0  0.75

pair_coeff  1  2   mdpd  -30.0  25.0  4.5  1.0  0.75

pair_coeff  2  2   mdpd  -40.0  25.0  4.5  1.0  0.75

###########################################################

compute             mythermo all temp
thermo              100
thermo_modify       temp mythermo
thermo_modify       flush yes

dump 1 all atom 100 drops2.lammpstrj

group film type 2

region drop1 sphere 12 0 7 7
group drop region drop1 

fix walllo film wall/lj93 zlo 1.6 10 0.5 1.0 units box
fix wallhi2 film wall/harmonic zhi 12 100 0.5 1.0 units box

fix walllo2 drop wall/lj93 zlo 1.6 2 0.5 1.0 units box
fix wallhi all wall/harmonic zhi 29 100 0.5 1.0 units box

fix kick drop addforce -0.02 0 0  

fix         mvv     all mvv/dpd 0.65


timestep 0.01
run 20000

