units lj
dimension 3
boundary p p f

processors 2 2 *

atom_style hybrid angle mdpd
neighbor 0.3 bin
neigh_modify every 1 delay 0 check yes
comm_modify vel yes cutoff 2.0

region        box  block -35 35 -25 25 0 30 units box
create_box    2    box

mass * 1

region        film   block INF INF INF INF 2 3
region        drop1   sphere 10 0 14 10
region        drop2   sphere -13.0 0 9 5

create_atoms  2 random $(round(6*lx*ly*3)) 2021 film
group film type 2

###########################################################
# Pair, Bond and Angle Coefficients

pair_style hybrid/overlay mdpd/rhosum mdpd 1.0 1.0 65689
pair_coeff  *  *   mdpd/rhosum  0.75

pair_coeff  1  1   mdpd  -50.0  25.0  4.5  1.0  0.75

pair_coeff  1  2   mdpd  -30.0  25.0  4.5  1.0  0.75

pair_coeff  2  2   mdpd  -40.0  25.0  4.5  1.0  0.75

###########################################################

compute             mythermo all temp
thermo              100
thermo_modify       temp mythermo
thermo_modify       flush yes

dump 1 all atom 100 drops2.lammpstrj

fix walllo film wall/lj93 zlo 1.6 10 0.5 1.0 units box

fix wallhi2 film wall/harmonic zhi 12 100 0.5 1.0 units box
fix wallhi all wall/harmonic zhi 29 100 0.5 1.0 units box

min_style cg
minimize 1e-6 1e-6 1000 10000

fix         mvv     all mvv/dpd 0.65
timestep 0.01
run 1000

create_atoms  1 random $(round(6.9*3.1415*10*10*10*4/3)) 2021 drop1
group drop1 region drop1
group drop type 1

fix walllo2 drop wall/lj93 zlo 1.6 1 0.5 1.0 units box

min_style cg
minimize 1e-4 1e-4 1000 10000

timestep 0.01
run 10000

create_atoms  1 random $(round(6.9*3.1415*5*5*5*4/3)) 2021 drop2

min_style cg
minimize 1e-4 1e-4 1000 10000

timestep 0.01
run 10000

write_data two_drops2.data

# fix kick drop1 addforce -0.02 0 0 every 

run 30000

